problems/csplib-prob015/SchursLemma-models/noch/O2/lingeling/model_1_4-4-16-solution000001.solution
language Essence 1.3

letting boxes be partition({1, 5, 8}, {2, 3, 6, 11, 12}, {4, 7, 9}, {10, 13, 14, 15, 16})
